CMD:
./solvers/bin/cadical --plain --no-reduce -t 1600 ./data/cnfs//6s269r/6s269r.37.cnf

c --- [ banner ] -------------------------------------------------------------
c 
c CaDiCaL SAT Solver
c Copyright (c) 2016-2024
c A. Biere, M. Fleury, N. Froleyks, K. Fazekas, F. Pollitt, T. Faller
c JKU Linz, University of Freiburg, TU Wien
c 
c Version 2.1.3 5296d3d2a9bf48c154ab2acb5e44625776d821bf
c g++ (Gentoo 12.3.1_p20230526 p2) 12.3.1 20230526 -Wall -Wextra -O3 -DNDEBUG
c Sat Aug 9 07:26:21 PDT 2025 Linux cedar2.int.cedar.computecanada.ca 5.14.0-362.24.2.el9_3.x86_64 x86_64
c 
c --- [ limit ] --------------------------------------------------------------
c 
c setting time limit to 1600 seconds real time (due to '-t 1600')
c 
c --- [ parsing input ] ------------------------------------------------------
c 
c reading DIMACS file from './data/cnfs//6s269r/6s269r.37.cnf'
c opening file to read './data/cnfs//6s269r/6s269r.37.cnf'
c found 'p cnf 142939 404857' header
c parsed 404857 clauses in 0.07 seconds process time
c 
c --- [ options ] ------------------------------------------------------------
c 
c   --compact=false                (different from default 'true')
c   --decompose=false              (different from default 'true')
c   --deduplicate=false            (different from default 'true')
c   --elim=false                   (different from default 'true')
c   --probe=false                  (different from default 'true')
c   --reduce=false                 (different from default 'true')
c   --subsume=false                (different from default 'true')
c   --ternary=false                (different from default 'true')
c   --transred=false               (different from default 'true')
c   --vivify=false                 (different from default 'true')
c 
c --- [ solving ] ------------------------------------------------------------
c 
c time measured in process time since initialization
c 
c  seconds  reductions  redundant  irredundant
c         MB    restarts       trail       variables
c          level   conflicts       glue          remaining
c 
c *  0.07 63  0 0   0    0    0  0% 0 371872 121834 85%
c {  0.08 63  0 0   0    0    0  0% 0 371872 121834 85%
c i  0.08 64 46 0   0   13   11 15% 1 371872 121822 85%
c i  0.08 64 46 0   0   19   15 16% 1 371872 121797 85%
c i  0.08 64 36 0   1   36   27 16% 2 371872 121782 85%
c i  0.08 64 35 0   1   37   27 16% 2 371872 121771 85%
c i  0.08 64 33 0   1   40   29 16% 2 371872 121745 85%
c i  0.08 64 37 0   1   53   40 16% 2 371872 121717 85%
c i  0.08 64 74 0   1   92   75 18% 2 371872 121712 85%
c i  0.09 64 236 0   4  143  115 21% 2 371872 121685 85%
c i  0.09 64 242 0   4  145  116 21% 2 371872 121684 85%
c i  0.09 64 247 0   4  147  117 21% 2 371872 121668 85%
c i  0.10 64 272 0   5  155  124 22% 2 371872 121660 85%
c i  0.10 64 304 0   8  166  133 23% 2 371872 121642 85%
c i  0.11 64 314 0   9  168  134 23% 2 371872 121628 85%
c i  0.11 64 345 0  12  179  143 24% 2 371872 121609 85%
c i  0.13 64 421 0  16  197  156 25% 2 371872 121582 85%
c i  0.13 64 456 0  17  203  161 26% 2 371872 121581 85%
c i  0.14 64 576 0  20  229  185 27% 2 371872 121555 85%
c i  0.14 64 568 0  21  234  187 27% 2 371872 121544 85%
c 
c  seconds   reductions  redundant  irredundant
c         MB     restarts       trail       variables
c           level   conflicts       glue          remaining
c 
c i  0.14 64 557 0  22  242  191 27% 2 371872 121519 85%
c i  0.14 64 550 0  23  245  193 27% 2 371872 121509 85%
c i  0.15 64 515 0  27  265  211 26% 2 371872 121477 85%
c i  0.15 64 508 0  27  270  215 27% 2 371872 121451 85%
c i  0.15 64 502 0  27  275  219 27% 2 371872 121425 85%
c i  0.15 64 497 0  27  280  222 27% 2 371872 121399 85%
c i  0.15 64 491 0  27  285  226 27% 2 371872 121373 85%
c i  0.15 64 486 0  27  289  229 27% 2 371872 121347 85%
c i  0.15 64 480 0  27  294  233 27% 2 371872 121321 85%
c i  0.15 64 475 0  27  299  237 27% 2 371872 121295 85%
c i  0.15 64 395 0  29  390  318 28% 2 371872 121289 85%
c i  0.16 64 389 0  31  397  324 27% 2 371872 121284 85%
c i  0.16 64 387 0  32  400  326 28% 2 371872 121252 85%
c i  0.16 64 386 0  33  401  326 28% 2 371872 121239 85%
c i  0.16 64 378 0  33  409  332 27% 2 371872 121218 85%
c i  0.16 64 377 0  33  410  332 27% 2 371872 121208 85%
c i  0.16 64 375 0  33  412  333 27% 2 371872 121180 85%
c i  0.16 64 371 0  33  417  337 27% 2 371872 121172 85%
c i  0.16 64 369 0  33  420  339 27% 2 371872 121164 85%
c i  0.16 64 367 0  33  423  341 27% 2 371872 121151 85%
c 
c  seconds   reductions  redundant  irredundant
c         MB     restarts       trail       variables
c           level   conflicts       glue          remaining
c 
c i  0.16 64 364 0  33  429  345 27% 2 371872 121143 85%
c i  0.16 64 360 0  33  434  348 27% 2 371872 121132 85%
c i  0.16 64 358 0  33  437  350 27% 2 371872 121115 85%
c i  0.17 65 327 0  33  491  394 27% 2 371872 121098 85%
... skipped 178 lines ...
c i 373.14 270 47 0 44498 632958 593493 33% 16 328224 119391 84%
c i 373.15 270 47 0 44498 632960 593494 33% 16 328224 119367 84%
c i 384.08 272 46 0 44510 661737 620678 33% 16 328224 119282 83%
c O 385.80 272 47 0 44513 666067 624788 33% 16 328224 119282 83%
c B 399.15 272 41 0 44522 703069 658891 33% 15 328224 119282 83%
c i 408.06 272 42 0 44523 727003 680993 33% 16 328224 119276 83%
c W 413.78 291 43 0 44524 741072 693874 33% 16 326828 119276 83%
c I 432.69 291 43 0 44524 780073 729900 32% 16 326828 119276 83%
c i 448.24 291 45 0 44529 813344 761594 32% 19 326828 119275 83%
c B 451.63 291 46 0 44532 820075 767941 32% 19 326828 119275 83%
c W 477.00 338 42 0 44552 861080 805005 32% 19 326825 119275 83%
c O 498.16 339 40 0 44563 903082 844265 32% 18 326825 119275 83%
c i 499.23 340 40 0 44565 905177 846211 33% 18 326825 119274 83%
c 
c  seconds    reductions       redundant    irredundant
c           MB     restarts            trail        variables
c            level      conflicts          glue           remaining
c 
c i 500.14 340 40 0 44565 906939 847833 32% 18 326825 119273 83%
c i 509.67 340 40 0 44575 929513 869070 33% 18 326825 119272 83%
c B 517.14 340 39 0 44584 946084 884579 32% 18 326825 119272 83%
c W 539.46 377 36 0 44587 990085 926394 32% 17 326816 119272 83%
c i 540.53 377 37 0 44587 992200 928427 32% 17 326816 119271 83%
c i 555.08 377 38 0 44597 1021950 955597 32% 17 326816 119270 83%
c ] 555.79 377 38 0 44597 1023012 956397 32% 17 326816 119270 83%
c { 555.79 377 48 0 44597 1023012 956397 32% 11 326816 119270 83%
c # 583.75 398 47 0 46209 1035086 967738 32% 11 326816 119270 83%
c B 686.79 428 45 0 51607 1081087 1010965 32% 12 326816 119270 83%
c W 779.36 478 44 0 55759 1128088 1055505 32% 12 326810 119270 83%
c F 882.69 488 42 0 60452 1176089 1100683 32% 12 326810 119270 83%
c B 986.67 501 41 0 64813 1225090 1147211 32% 12 326810 119270 83%
c i 1016.19 505 41 0 66065 1238636 1160104 32% 12 326810 119264 83%
c W 1089.80 551 41 0 68929 1275091 1194864 32% 12 326790 119264 83%
c # 1197.77 557 40 0 73415 1326094 1243307 32% 12 326790 119264 83%
c B 1314.55 559 38 0 78267 1378095 1292382 32% 12 326790 119264 83%
c W 1433.76 577 38 0 82916 1431097 1342877 32% 12 326790 119264 83%
c i 1470.25 582 38 0 84240 1445951 1356915 32% 12 326790 119263 83%
c F 1554.55 594 39 0 87202 1485098 1394185 32% 12 326790 119263 83%
c 
c   seconds    reductions         redundant    irredundant
c            MB     restarts              trail        variables
c             level       conflicts           glue           remaining
c 
c i 1584.11 597 38 0 88355 1496800 1405202 32% 13 326790 119262 83%
c } 1592.67 598 38 0 88695 1499432 1407693 32% 13 326790 119262 83%
c ? 1592.67 598 38 0 88695 1499432 1407693 32% 13 326790 119262 83%
c 
c --- [ result ] -------------------------------------------------------------
c 
c UNKNOWN
c 
c --- [ run-time profiling ] -------------------------------------------------
c 
c process time taken by individual solving procedures
c (percentage relative to process time for solving)
c 
c      1592.59  100.00% search
c      1324.09   83.14% unstable
c       264.56   16.61% stable
c         3.94    0.25% walk
c         0.07    0.00% parse
c         0.00    0.00% lucky
c         0.00    0.00% simplify
c   =================================
c      1592.59  100.00% solve
c 
c last line shows process time for solving
c (percentage relative to total process time)
c 
c --- [ statistics ] ---------------------------------------------------------
c 
c chronological:            350250        23.36 %  of conflicts
c conflicts:               1499432       941.50    per second
c decisions:               5600449      3516.56    per second
c fixed:                     23677        16.56 %  of all variables
c learned:                 1462730        97.55 %  per conflict
c learned_lits:          130166353       100.00 %  learned literals
c minimized:                     0         0.00 %  learned literals
c shrunken:               18969903        14.57 %  learned literals
c minishrunken:           43529319        33.44 %  learned literals
c otfs:                       2709         0.18 %  of conflict
c propagations:         3865519223         2.43 M  per second
c rephased:                     54     27767.26    interval
c restarts:                  88695        16.91    interval
c stabilizing:                   5        45.48 %  of conflicts
c subsumed:                  53686         2.93 %  of all clauses
c strengthened:               2677         0.15 %  of all clauses
c walked:                       17     88201.88    interval
c 
c seconds are measured in process time for solving
c 
c --- [ resources ] ----------------------------------------------------------
c 
c total process time since initialization:      1592.67    seconds
c total real time since initialization:         1600.01    seconds
c maximum resident set size of process:          770.32    MB
c 
c --- [ shutting down ] ------------------------------------------------------
c 
c exit 0
